solution status: optimal solution found
objective value:                                  246
x0_1                                                1 	(obj:0)
x1_3                                                1 	(obj:0)
x2_11                                               1 	(obj:0)
x3_8                                                1 	(obj:0)
x4_4                                                1 	(obj:0)
x5_6                                                1 	(obj:0)
x6_12                                               1 	(obj:0)
x7_9                                                1 	(obj:0)
x8_2                                                1 	(obj:0)
x9_13                                               1 	(obj:0)
x10_14                                              1 	(obj:0)
x11_5                                               1 	(obj:0)
x12_10                                              1 	(obj:0)
x13_7                                               1 	(obj:0)
x14_15                                              1 	(obj:0)
quadobjvar                                        246 	(obj:1)
